SDVRP instances/custom_instances/p04_7_split0.vrp
NAME:p04_7_split
BEST_KNOWN: 0
COMMENT: 0
DIMENSION: 704
CAPACITY: 200
EDGE_WEIGHT_FORMAT: FUNCTION
EDGE_WEIGHT_TYPE: EXACT_2D
NODE_COORD_SECTION
1 0.00000 0.00000
2 -42 -44
3 -42 -44
4 -42 -44
5 -42 -44
6 -42 -44
7 -42 -44
8 -42 -44
9 -35 -18
10 -35 -18
11 -35 -18
12 -35 -18
13 -35 -18
14 -26 34
15 -26 34
16 -26 34
17 2 39
18 2 39
19 2 39
20 31 27
21 31 27
22 31 27
23 31 27
24 31 27
25 31 27
26 31 27
27 26 32
28 26 32
29 26 32
30 26 32
31 26 32
32 49 -44
33 49 -44
34 49 -44
35 49 -44
36 49 -44
37 49 -44
38 -40 41
39 -40 41
40 -40 41
41 -40 41
42 -40 41
43 -40 41
44 28 -35
45 28 -35
46 28 -35
47 28 -35
48 28 -35
49 -45 40
50 -45 40
51 -45 40
52 -45 40
53 -8 -10
54 -8 -10
55 -8 -10
56 2 -37
57 2 -37
58 2 -37
59 2 -37
60 29 2
61 29 2
62 29 2
63 29 2
64 29 2
65 29 2
66 29 2
67 41 18
68 41 18
69 41 18
70 41 18
71 41 18
72 -27 38
73 -27 38
74 -27 38
75 -27 38
76 -27 38
77 -27 38
78 -27 38
79 -1 50
80 -1 50
81 -1 50
82 -1 50
83 -1 50
84 11 -46
85 11 -46
86 11 -46
87 11 -46
88 11 -46
89 -49 22
90 -49 22
91 -49 22
92 -49 22
93 -49 22
94 45 -36
95 45 -36
96 45 -36
97 45 -36
98 -34 23
99 -34 23
100 -34 23
101 -34 23
102 6 -30
103 6 -30
104 6 -30
105 6 -30
106 6 -30
107 6 -30
108 6 -30
109 6 -30
110 41 -6
111 41 -6
112 41 -6
113 41 -6
114 41 -6
115 41 -6
116 41 -6
117 31 -12
118 31 -12
119 31 -12
120 31 -12
121 -47 -25
122 -47 -25
123 -47 -25
124 -47 -25
125 -47 -25
126 -47 -25
127 47 11
128 47 11
129 47 11
130 47 11
131 47 11
132 47 11
133 42 48
134 42 48
135 42 48
136 42 48
137 26 -35
138 26 -35
139 26 -35
140 -38 36
141 -38 36
142 -38 36
143 43 15
144 43 15
145 43 15
146 43 15
147 35 39
148 35 39
149 35 39
150 35 39
151 35 39
152 35 39
153 -41 45
154 -41 45
155 -41 45
156 -41 45
157 -41 45
158 -40 16
159 -40 16
160 -6 32
161 -6 32
162 -6 32
163 -6 32
164 -6 32
165 -6 32
166 46 17
167 46 17
168 46 17
169 46 17
170 38 22
171 38 22
172 38 22
173 38 22
174 39 17
175 39 17
176 39 17
177 39 17
178 39 17
179 39 17
180 -1 44
181 -1 44
182 -1 44
183 -1 44
184 43 30
185 43 30
186 43 30
187 43 30
188 43 30
189 43 30
190 -2 -26
191 -2 -26
192 -2 -26
193 -2 -26
194 -2 -26
195 1 35
196 1 35
197 1 35
198 1 35
199 1 35
200 1 35
201 22 -21
202 22 -21
203 22 -21
204 -21 23
205 -21 23
206 -21 23
207 -15 5
208 -15 5
209 -15 5
210 -15 5
211 -23 -45
212 -23 -45
213 -23 -45
214 44 13
215 44 13
216 44 13
217 44 13
218 15 -20
219 15 -20
220 15 -20
221 15 -20
222 33 0
223 33 0
224 33 0
225 33 0
226 33 0
227 33 0
228 -34 -31
229 -34 -31
230 -34 -31
231 -34 -31
232 -34 -31
233 -34 -31
234 -34 -31
235 -34 -31
236 10 -14
237 10 -14
238 10 -14
239 10 -14
240 10 -14
241 41 -29
242 41 -29
243 41 -29
244 22 -41
245 22 -41
246 22 -41
247 -24 43
248 -24 43
249 -24 43
250 -24 43
251 -24 43
252 -24 43
253 -24 -16
254 -24 -16
255 -24 -16
256 -24 -16
257 -24 -16
258 -24 -16
259 -24 -16
260 7 24
261 7 24
262 7 24
263 7 24
264 7 24
265 7 24
266 7 24
267 0 -2
268 0 -2
269 0 -2
270 0 -2
271 0 -2
272 0 -2
273 9 -8
274 9 -8
275 9 -8
276 9 -8
277 9 -8
278 9 -8
279 2 -34
280 2 -34
281 2 -34
282 2 -34
283 2 -34
284 46 44
285 46 44
286 42 -40
287 42 -40
288 42 -40
289 42 -40
290 42 -40
291 42 -40
292 36 -4
293 36 -4
294 36 -4
295 36 -4
296 36 -4
297 36 -4
298 -30 -14
299 -30 -14
300 -30 -14
301 -30 -14
302 -35 -13
303 -35 -13
304 -35 -13
305 -35 -13
306 -35 -13
307 -35 -13
308 -35 -13
309 -35 -13
310 -47 40
311 -47 40
312 -47 40
313 -47 40
314 8 -16
315 8 -16
316 8 -16
317 8 -16
318 8 -16
319 8 -16
320 40 31
321 40 31
322 40 31
323 40 31
324 -47 10
325 -47 10
326 -47 10
327 -47 10
328 -8 -11
329 -8 -11
330 -8 -11
331 24 -39
332 24 -39
333 24 -39
334 11 8
335 11 8
336 11 8
337 11 8
338 11 8
339 -5 -20
340 -5 -20
341 -5 -20
342 -5 -20
343 -22 -43
344 -22 -43
345 -22 -43
346 -22 -43
347 -22 -43
348 -20 49
349 -20 49
350 -20 49
351 48 -39
352 48 -39
353 48 -39
354 48 -39
355 48 -39
356 48 -39
357 30 -3
358 30 -3
359 30 -3
360 30 -3
361 30 -3
362 30 -3
363 3 43
364 3 43
365 3 43
366 3 43
367 -46 10
368 -46 10
369 -38 24
370 -38 24
371 -38 24
372 -38 24
373 -11 4
374 -11 4
375 -11 4
376 -11 4
377 -11 4
378 -11 4
379 -11 4
380 -37 -48
381 -37 -48
382 -37 -48
383 -37 -48
384 -37 -48
385 0 -34
386 0 -34
387 0 -34
388 0 -34
389 0 -34
390 5 -48
391 5 -48
392 5 -48
393 5 -48
394 17 -13
395 17 -13
396 17 -13
397 17 -13
398 17 -13
399 -22 -16
400 -22 -16
401 -22 -16
402 -22 -16
403 -22 -16
404 17 -21
405 17 -21
406 -32 15
407 -32 15
408 -32 15
409 -32 15
410 -32 15
411 -32 15
412 33 3
413 33 3
414 33 3
415 33 3
416 33 3
417 -11 32
418 -11 32
419 -41 11
420 -41 11
421 -41 11
422 -41 11
423 -41 11
424 -41 11
425 -41 11
426 31 -45
427 31 -45
428 31 -45
429 31 -45
430 31 -45
431 -27 -13
432 -27 -13
433 -27 -13
434 25 35
435 25 35
436 25 35
437 25 35
438 25 35
439 0 -44
440 0 -44
441 0 -44
442 0 -44
443 1 13
444 1 13
445 1 13
446 1 13
447 1 13
448 -31 14
449 -31 14
450 32 -3
451 32 -3
452 32 -3
453 32 -3
454 32 -3
455 32 -3
456 -8 -7
457 -8 -7
458 -8 -7
459 -6 28
460 -6 28
461 -6 28
462 -6 28
463 -6 28
464 -6 28
465 -6 28
466 -47 39
467 -47 39
468 -47 39
469 -47 39
470 -47 39
471 -47 39
472 -47 39
473 -2 50
474 -2 50
475 -2 50
476 -2 50
477 -2 50
478 43 4
479 43 4
480 43 4
481 43 4
482 43 4
483 2 -37
484 2 -37
485 2 -37
486 2 -37
487 2 -37
488 -33 38
489 -33 38
490 -33 38
491 -33 38
492 -33 38
493 -33 38
494 -33 38
495 7 -42
496 7 -42
497 12 -7
498 12 -7
499 12 -7
500 12 -7
501 12 -7
502 32 -35
503 32 -35
504 32 -35
505 32 -35
506 32 -35
507 32 -35
508 19 16
509 19 16
510 19 16
511 19 16
512 19 16
513 19 16
514 19 16
515 -6 34
516 -6 34
517 -6 34
518 -6 34
519 47 11
520 47 11
521 47 11
522 47 11
523 47 11
524 -35 -20
525 -35 -20
526 -35 -20
527 -35 -20
528 -35 -20
529 -35 -20
530 -35 -20
531 49 -37
532 49 -37
533 49 -37
534 -30 42
535 -30 42
536 -30 42
537 43 22
538 43 22
539 43 22
540 43 22
541 -17 40
542 -17 40
543 -17 40
544 -17 40
545 20 -47
546 20 -47
547 20 -47
548 20 -47
549 20 -47
550 20 -47
551 20 -47
552 -10 -17
553 -10 -17
554 -10 -17
555 -12 34
556 -12 34
557 -37 -3
558 -37 -3
559 -37 -3
560 -37 -3
561 -37 -3
562 35 -41
563 35 -41
564 35 -41
565 8 31
566 8 31
567 8 31
568 8 31
569 8 31
570 8 31
571 22 -13
572 22 -13
573 22 -13
574 22 -13
575 22 -13
576 -39 14
577 -39 14
578 29 32
579 29 32
580 29 32
581 29 32
582 38 -43
583 38 -43
584 38 -43
585 38 -43
586 -9 38
587 -9 38
588 -9 38
589 -2 15
590 -2 15
591 -2 15
592 -44 -1
593 -44 -1
594 -44 -1
595 -44 -1
596 -44 -1
597 -44 -1
598 -44 -1
599 -48 -39
600 -48 -39
601 -48 -39
602 -48 -39
603 -48 -39
604 37 -17
605 37 -17
606 37 -17
607 37 -17
608 37 -17
609 37 -17
610 44 14
611 44 14
612 44 14
613 44 14
614 44 14
615 -16 40
616 -16 40
617 38 4
618 38 4
619 38 4
620 38 4
621 38 4
622 35 17
623 35 17
624 35 17
625 35 17
626 -46 -12
627 -46 -12
628 -46 -12
629 -42 -36
630 -42 -36
631 -42 -36
632 30 10
633 30 10
634 30 10
635 30 10
636 -41 48
637 -41 48
638 -41 48
639 -41 48
640 -41 48
641 -41 48
642 -41 48
643 -41 48
644 16 5
645 16 5
646 16 5
647 16 5
648 16 5
649 16 32
650 16 32
651 16 32
652 16 32
653 16 32
654 9 -6
655 9 -6
656 9 -6
657 9 -6
658 9 -6
659 32 -19
660 32 -19
661 32 -19
662 -16 -32
663 -16 -32
664 -16 -32
665 -16 -32
666 -16 -32
667 -16 -32
668 -17 2
669 -17 2
670 -17 2
671 -17 2
672 -17 2
673 -46 5
674 -46 5
675 -46 5
676 -46 5
677 -46 5
678 -46 5
679 6 -48
680 6 -48
681 6 -48
682 6 -48
683 21 44
684 21 44
685 12 10
686 12 10
687 12 10
688 12 10
689 12 10
690 -33 -9
691 -33 -9
692 -33 -9
693 -33 -9
694 -33 -9
695 4 -45
696 4 -45
697 4 -45
698 4 -45
699 -26 39
700 -26 39
701 -26 39
702 44 32
703 44 32
704 44 32
DEMAND_SECTION
1 0
2 40
3 40
4 10
5 2
6 2
7 2
8 2
9 40
10 20
11 2
12 2
13 2
14 20
15 10
16 2
17 40
18 40
19 10
20 40
21 10
22 2
23 2
24 2
25 2
26 1
27 20
28 2
29 2
30 2
31 1
32 40
33 40
34 10
35 2
36 2
37 2
38 40
39 40
40 10
41 2
42 2
43 2
44 40
45 10
46 2
47 2
48 1
49 20
50 2
51 2
52 2
53 40
54 40
55 2
56 20
57 10
58 2
59 1
60 40
61 40
62 10
63 2
64 2
65 2
66 1
67 40
68 10
69 2
70 2
71 1
72 40
73 40
74 10
75 2
76 2
77 2
78 2
79 40
80 2
81 2
82 2
83 2
84 20
85 2
86 2
87 2
88 1
89 40
90 40
91 2
92 2
93 2
94 40
95 20
96 2
97 1
98 20
99 10
100 2
101 1
102 40
103 20
104 10
105 2
106 2
107 2
108 2
109 1
110 40
111 40
112 2
113 2
114 2
115 2
116 1
117 40
118 10
119 2
120 1
121 40
122 10
123 2
124 2
125 2
126 2
127 40
128 40
129 2
130 2
131 2
132 2
133 40
134 20
135 2
136 1
137 40
138 40
139 20
140 40
141 20
142 2
143 20
144 10
145 2
146 1
147 40
148 10
149 2
150 2
151 2
152 2
153 40
154 40
155 10
156 2
157 1
158 20
159 10
160 40
161 2
162 2
163 2
164 2
165 1
166 40
167 2
168 2
169 1
170 40
171 40
172 2
173 1
174 40
175 40
176 10
177 2
178 2
179 2
180 20
181 10
182 2
183 1
184 40
185 40
186 10
187 2
188 2
189 2
190 20
191 2
192 2
193 2
194 2
195 40
196 2
197 2
198 2
199 2
200 1
201 40
202 10
203 2
204 40
205 40
206 2
207 40
208 40
209 10
210 2
211 40
212 40
213 20
214 20
215 10
216 2
217 2
218 40
219 10
220 2
221 2
222 20
223 2
224 2
225 2
226 2
227 1
228 40
229 20
230 10
231 2
232 2
233 2
234 2
235 1
236 40
237 40
238 10
239 2
240 2
241 20
242 10
243 2
244 40
245 10
246 2
247 20
248 10
249 2
250 2
251 2
252 2
253 40
254 20
255 2
256 2
257 2
258 2
259 1
260 40
261 40
262 2
263 2
264 2
265 2
266 1
267 40
268 2
269 2
270 2
271 2
272 1
273 40
274 40
275 10
276 2
277 2
278 1
279 20
280 2
281 2
282 2
283 2
284 40
285 40
286 40
287 2
288 2
289 2
290 2
291 1
292 20
293 10
294 2
295 2
296 2
297 1
298 20
299 2
300 2
301 1
302 40
303 20
304 10
305 2
306 2
307 2
308 2
309 1
310 40
311 40
312 10
313 1
314 40
315 20
316 2
317 2
318 2
319 1
320 40
321 10
322 2
323 1
324 40
325 40
326 2
327 1
328 20
329 10
330 2
331 40
332 20
333 1
334 20
335 2
336 2
337 2
338 1
339 40
340 40
341 10
342 2
343 40
344 10
345 2
346 2
347 2
348 40
349 40
350 2
351 20
352 2
353 2
354 2
355 2
356 1
357 40
358 20
359 2
360 2
361 2
362 1
363 40
364 2
365 2
366 1
367 40
368 1
369 20
370 2
371 2
372 2
373 40
374 40
375 10
376 2
377 2
378 2
379 1
380 20
381 10
382 2
383 2
384 2
385 20
386 2
387 2
388 2
389 2
390 40
391 10
392 2
393 2
394 40
395 2
396 2
397 2
398 1
399 40
400 20
401 10
402 2
403 2
404 20
405 10
406 20
407 2
408 2
409 2
410 2
411 1
412 40
413 40
414 2
415 2
416 2
417 40
418 10
419 40
420 40
421 10
422 2
423 2
424 2
425 2
426 40
427 40
428 10
429 2
430 1
431 40
432 10
433 2
434 20
435 2
436 2
437 2
438 2
439 40
440 10
441 2
442 2
443 40
444 20
445 10
446 2
447 1
448 40
449 10
450 40
451 20
452 2
453 2
454 2
455 1
456 20
457 10
458 2
459 20
460 10
461 2
462 2
463 2
464 2
465 1
466 40
467 10
468 2
469 2
470 2
471 2
472 1
473 40
474 40
475 10
476 2
477 2
478 40
479 40
480 2
481 2
482 1
483 40
484 10
485 2
486 2
487 1
488 40
489 40
490 10
491 2
492 2
493 2
494 1
495 40
496 20
497 40
498 10
499 2
500 2
501 1
502 40
503 10
504 2
505 2
506 2
507 2
508 40
509 40
510 2
511 2
512 2
513 2
514 1
515 40
516 20
517 2
518 2
519 40
520 10
521 2
522 2
523 1
524 40
525 40
526 2
527 2
528 2
529 2
530 1
531 40
532 40
533 2
534 40
535 10
536 2
537 20
538 10
539 2
540 1
541 40
542 2
543 2
544 1
545 40
546 20
547 10
548 2
549 2
550 2
551 2
552 40
553 20
554 2
555 40
556 2
557 40
558 40
559 10
560 2
561 2
562 40
563 20
564 10
565 40
566 40
567 2
568 2
569 2
570 1
571 40
572 10
573 2
574 2
575 2
576 40
577 40
578 40
579 20
580 10
581 2
582 40
583 10
584 2
585 1
586 40
587 40
588 20
589 40
590 20
591 1
592 40
593 20
594 10
595 2
596 2
597 2
598 2
599 20
600 2
601 2
602 2
603 2
604 40
605 40
606 10
607 2
608 2
609 2
610 20
611 2
612 2
613 2
614 1
615 40
616 1
617 20
618 10
619 2
620 2
621 1
622 40
623 10
624 2
625 2
626 40
627 40
628 2
629 40
630 20
631 2
632 40
633 40
634 2
635 2
636 40
637 40
638 10
639 2
640 2
641 2
642 2
643 1
644 40
645 20
646 2
647 2
648 2
649 40
650 40
651 2
652 2
653 2
654 40
655 10
656 2
657 2
658 1
659 40
660 40
661 20
662 40
663 20
664 2
665 2
666 2
667 1
668 40
669 2
670 2
671 2
672 1
673 40
674 20
675 10
676 2
677 2
678 2
679 40
680 20
681 2
682 1
683 40
684 1
685 40
686 40
687 2
688 2
689 1
690 40
691 10
692 2
693 2
694 2
695 20
696 10
697 2
698 2
699 20
700 10
701 1
702 40
703 40
704 20
DEPOT_SECTION
1
-1
EOF