SDVRP instances/custom_instances/p04_7_split0.sol
703 -13 77 74 76 73 698 700 699 250 251 247 249 246 248 348 347 349 555 417 -15 14 72 75 71 533 535 534 488 489 493 491 -40 41 154 152 156 155 153 641 638 639 636 635 637 642 640 -47 46 428 426 425 429 427 582 561 562 563 504 506 502 505 -48 50 49 51 311 310 309 312 465 471 468 470 469 467 466 368 370 371 -53 328 327 329 552 551 553 339 340 341 -54 52 400 399 401 398 402 254 256 253 252 455 -58 55 484 485 486 696 695 694 697 494 495 101 102 108 106 104 105 103 107 -65 62 64 61 60 413 415 414 412 411 620 617 616 618 619 221 224 -70 69 67 68 142 144 143 145 610 609 612 611 613 168 165 166 167 131 130 522 126 213 216 215 214 -83 87 86 84 85 679 681 680 678 390 391 392 389 441 440 439 438 -95 93 96 94 350 354 531 532 530 242 240 241 -118 603 605 607 604 608 606 660 659 658 655 -119 117 116 112 110 115 111 114 113 109 291 294 293 292 295 296 450 360 -120 121 123 122 124 125 629 630 628 229 232 234 231 230 227 228 233 -133 135 132 134 284 283 319 322 321 320 -140 141 139 42 37 39 38 490 492 487 -163 161 159 160 162 164 514 517 586 585 587 460 463 461 -169 170 172 171 538 537 536 539 66 631 634 -180 179 181 182 78 79 80 81 82 475 473 474 472 476 515 516 -188 183 187 184 186 185 702 701 703 336 337 -194 199 195 196 198 197 16 18 17 362 365 363 364 -202 355 353 351 352 31 34 33 35 36 32 286 289 288 290 287 285 581 583 584 -204 205 203 97 99 100 98 408 410 406 405 407 409 447 448 -209 207 206 208 376 377 372 375 378 373 374 -219 220 137 138 136 44 45 43 501 503 -226 222 223 225 480 479 478 481 477 128 521 520 129 519 518 127 647 645 -239 238 237 218 217 404 403 200 201 571 570 572 574 573 -255 258 257 526 524 529 523 528 525 527 11 12 8 10 9 300 297 299 298 431 -261 259 264 260 265 263 262 567 566 565 564 568 569 -269 270 267 268 271 266 588 589 590 442 443 446 444 445 -272 274 275 276 277 273 498 496 497 653 657 656 654 -279 280 282 278 281 56 483 482 57 385 384 388 386 387 193 191 190 192 189 338 -302 308 626 627 625 557 556 559 560 558 -318 317 314 313 315 316 235 236 393 395 394 397 396 499 500 -331 330 332 243 245 244 548 547 545 544 546 549 550 -335 334 333 644 646 63 59 454 453 451 452 449 359 358 356 361 357 -345 344 343 346 342 212 210 211 661 663 -367 366 323 326 325 324 677 676 673 675 674 672 -369 90 88 91 92 89 158 157 575 576 -422 420 424 418 419 421 423 594 596 592 597 595 593 591 671 668 -432 430 303 304 307 306 301 305 693 692 689 690 691 667 670 669 -457 456 602 601 599 598 600 3 7 2 1 6 5 4 381 379 383 382 380 662 664 665 666 -464 462 458 459 416 554 614 615 542 543 541 540 -513 512 509 511 510 25 21 24 22 23 19 20 149 150 148 146 147 151 577 580 579 578 -623 621 624 622 178 174 173 175 177 176 633 632 -643 507 508 685 684 -651 652 648 650 649 682 683 436 437 433 434 435 28 29 30 26 27 687 688 686 0 





OBJ=
4420.612
BEST_KNOWN=
0.000